ssat_solver_solve2
#level: 2
Abc_NtkNodeNum(s->pNtk): 183  , BDD limit: 10240
Build BDD success
level 1: 5 element
Exist
level 0: 5 element
Random
c ssat solving in ABC
#var: 10
s SATISFIABLE
  > Upper bound = 6.875000e-01
  > Lower bound = 6.875000e-01
FINISHED CPU 0.10 MEM 0 MAXMEM 0 STALE 0 MAXMEM_RSS 0
<time name="ALL">130</time>
real 0.30
user 0.21
sys 0.14
